
Gurobi 11.0.3 (linux64) logging started Fri Nov 22 05:19:12 2024

Set parameter LogFile to value "/home/yihong/Coding/OR_SUC/SUC_results_bigM100000_thread4/case24_ieee_rts_theta0.1_epsilon0.05_gurobi_seed1050000_num_gen100_N_WDR100_load_scaling_factor1_proposed_T8quadra_cost.txt"
Set parameter TimeLimit to value 3600
Gurobi Optimizer version 11.0.3 build v11.0.3rc0 (linux64 - "Ubuntu 20.04.6 LTS")

CPU model: AMD EPYC 7532 32-Core Processor, instruction set [SSE2|AVX|AVX2]
Thread count: 64 physical cores, 128 logical processors, using up to 4 threads

Optimize a model with 18854 rows, 10021 columns and 437434 nonzeros
Model fingerprint: 0xad14b135
Model has 800 quadratic constraints
Variable types: 9221 continuous, 800 integer (800 binary)
Coefficient statistics:
  Matrix range     [3e-04, 2e+03]
  QMatrix range    [2e-03, 8e-03]
  QLMatrix range   [7e-02, 6e+01]
  Objective range  [1e+00, 1e+00]
  Bounds range     [1e+00, 1e+00]
  RHS range        [1e+00, 8e+03]
Presolve removed 15631 rows and 4444 columns
Presolve time: 0.12s
Presolved: 3223 rows, 5577 columns, 20823 nonzeros
Presolved model has 800 quadratic constraint(s)
Variable types: 4777 continuous, 800 integer (800 binary)

Root relaxation: objective 1.103877e+04, 2426 iterations, 0.04 seconds (0.06 work units)

    Nodes    |    Current Node    |     Objective Bounds      |     Work
 Expl Unexpl |  Obj  Depth IntInf | Incumbent    BestBd   Gap | It/Node Time

H    0     0                    146989.80240 11038.7725  92.5%     -    0s
*    0     0               0    146989.80240 11038.7725  92.5%     -    0s
     0     0 13527.3972    0  208 146989.802 13527.3972  90.8%     -    0s
     0     0 124566.351    0  160 146989.802 124566.351  15.3%     -    0s
     0     0 129486.095    0    8 146989.802 129486.095  11.9%     -    0s
     0     0 129489.370    0    8 146989.802 129489.370  11.9%     -    0s
     0     0 129490.213    0    8 146989.802 129490.213  11.9%     -    0s
     0     0 129490.784    0    8 146989.802 129490.784  11.9%     -    0s
     0     2 129490.784    0    8 146989.802 129490.784  11.9%     -    1s
H  154   160                    129543.67951 129502.732  0.03%  24.6    2s
*  154   160              40    129543.67951 129502.732  0.03%  24.6    2s

Cutting planes:
  Gomory: 26
  Implied bound: 87
  MIR: 33
  Flow cover: 112
  RLT: 47
  Relax-and-lift: 81

Explored 163 nodes (12196 simplex iterations) in 2.63 seconds (4.01 work units)
Thread count was 4 (of 128 available processors)

Solution count 3: 129544 129544 146990 

Optimal solution found (tolerance 1.00e-03)
Warning: max constraint violation (1.5323e-08) exceeds tolerance
Best objective 1.295436795117e+05, best bound 1.295027321771e+05, gap 0.0316%
